c This is QMaxSAT 2017 based on 14.07
c This is Glucose 3.0
c This is MiniSat 2.2.0
c WARNING: for repeatability, setting FPU to use double precision
c card = mrwto, comp = 0, pmodel = 0, narr = 17, mct = 76, verb = 0
cr firstCPXsol 0 0 0
c top = 189219
c |  Number of variables:    16928                                            |
c |  Number of clauses:      1355584                                          |
c |  Weight of hard clauses: 189219                                           |
c |  Number of soft clauses: 137700                                           |
c |  Number of unit soft clauses: 0                                           |
c |  Maximum Cardinality (by unit): 4503810      (0           )               |
c last restart ## conflicts  :  21 4425 
o 1224 | cpuTime 0.191998 s
c Sum of weights = 264930
c A number of soft clauses remained = 8100
c MRWTO encoding for Pseudo-Boolean Constraints
c sizeMax=1224
c No.0 Divisor=11	generated by pow1
c No.1 Divisor=11	generated by pow1
c No.2 Divisor=11	generated by pow1
c p0= 11	p1= 11	p2= 11	
c number of digits = 4
c linkingVar[0].size = 11, linkingVar[1].size = 11, linkingVar[2].size = 11, linkingVar[3].size = 1, 
c Pseudo-Boolean Constraints: 153921 variables and 1352979 clauses
c Sum of weights = 264930
c A number of soft clauses remained = 8100
c MRWTO encoding for Pseudo-Boolean Constraints
c sizeMax=1224
c No.0 Divisor=11	generated by pow1
c No.1 Divisor=11	generated by pow1
c No.2 Divisor=11	generated by pow1
c p0= 11	p1= 11	p2= 11	
c number of digits = 4
c linkingVar[0].size = 11, linkingVar[1].size = 11, linkingVar[2].size = 11, linkingVar[3].size = 1, 
c Pseudo-Boolean Constraints: 153921 variables and 1352979 clauses
c Sum of weights = 264930
c A number of soft clauses remained = 8100
c MRWTO encoding for Pseudo-Boolean Constraints
c sizeMax=1224
c No.0 Divisor=11	generated by pow1
c No.1 Divisor=11	generated by pow1
c No.2 Divisor=11	generated by pow1
c p0= 11	p1= 11	p2= 11	
c number of digits = 4
c linkingVar[0].size = 11, linkingVar[1].size = 11, linkingVar[2].size = 11, linkingVar[3].size = 1, 
c Pseudo-Boolean Constraints: 153921 variables and 1352979 clauses
c Sum of weights = 264930
c A number of soft clauses remained = 8100
c MRWTO encoding for Pseudo-Boolean Constraints
c sizeMax=1224
c No.0 Divisor=11	generated by pow1
c No.1 Divisor=11	generated by pow1
c No.2 Divisor=11	generated by pow1
c p0= 11	p1= 11	p2= 11	
c number of digits = 4
c linkingVar[0].size = 11, linkingVar[1].size = 11, linkingVar[2].size = 11, linkingVar[3].size = 1, 
c Pseudo-Boolean Constraints: 153921 variables and 1352979 clauses
c Sum of weights = 264930
c A number of soft clauses remained = 8100
c MRWTO encoding for Pseudo-Boolean Constraints
c sizeMax=1224
c No.0 Divisor=11	generated by pow1
c No.1 Divisor=11	generated by pow1
c No.2 Divisor=11	generated by pow1
c p0= 11	p1= 11	p2= 11	
c number of digits = 4
c linkingVar[0].size = 11, linkingVar[1].size = 11, linkingVar[2].size = 11, linkingVar[3].size = 1, 
c Pseudo-Boolean Constraints: 153921 variables and 1352979 clauses
c Sum of weights = 264930
c A number of soft clauses remained = 8100
c MRWTO encoding for Pseudo-Boolean Constraints
c sizeMax=1224
c No.0 Divisor=11	generated by pow1
c No.1 Divisor=11	generated by pow1
c No.2 Divisor=11	generated by pow1
c p0= 11	p1= 11	p2= 11	
c number of digits = 4
c linkingVar[0].size = 11, linkingVar[1].size = 11, linkingVar[2].size = 11, linkingVar[3].size = 1, 
c Pseudo-Boolean Constraints: 153921 variables and 1352979 clauses
c Sum of weights = 264930
c A number of soft clauses remained = 8100
c MRWTO encoding for Pseudo-Boolean Constraints
c sizeMax=1224
c No.0 Divisor=11	generated by pow1
c No.1 Divisor=11	generated by pow1
c No.2 Divisor=11	generated by pow1
c p0= 11	p1= 11	p2= 11	
c number of digits = 4
c linkingVar[0].size = 11, linkingVar[1].size = 11, linkingVar[2].size = 11, linkingVar[3].size = 1, 
c Pseudo-Boolean Constraints: 153921 variables and 1352979 clauses
c Sum of weights = 264930
c A number of soft clauses remained = 8100
c MRWTO encoding for Pseudo-Boolean Constraints
c sizeMax=1224
c No.0 Divisor=11	generated by pow1
c No.1 Divisor=11	generated by pow1
c No.2 Divisor=11	generated by pow1
c p0= 11	p1= 11	p2= 11	
c number of digits = 4
c linkingVar[0].size = 11, linkingVar[1].size = 11, linkingVar[2].size = 11, linkingVar[3].size = 1, 
c Pseudo-Boolean Constraints: 153921 variables and 1352979 clauses
c Sum of weights = 264930
c A number of soft clauses remained = 8100
c MRWTO encoding for Pseudo-Boolean Constraints
c sizeMax=1224
c No.0 Divisor=11	generated by pow1
c No.1 Divisor=11	generated by pow1
c No.2 Divisor=11	generated by pow1
c p0= 11	p1= 11	p2= 11	
c number of digits = 4
c linkingVar[0].size = 11, linkingVar[1].size = 11, linkingVar[2].size = 11, linkingVar[3].size = 1, 
c Pseudo-Boolean Constraints: 153921 variables and 1352979 clauses
c Sum of weights = 264930
c A number of soft clauses remained = 8100
c MRWTO encoding for Pseudo-Boolean Constraints
c sizeMax=1224
c No.0 Divisor=11	generated by pow1
c No.1 Divisor=11	generated by pow1
c No.2 Divisor=11	generated by pow1
c p0= 11	p1= 11	p2= 11	
c number of digits = 4
c linkingVar[0].size = 11, linkingVar[1].size = 11, linkingVar[2].size = 11, linkingVar[3].size = 1, 
c Pseudo-Boolean Constraints: 153921 variables and 1352979 clauses
c Sum of weights = 264930
c A number of soft clauses remained = 8100
c MRWTO encoding for Pseudo-Boolean Constraints
c sizeMax=1224
c No.0 Divisor=11	generated by pow1
c No.1 Divisor=11	generated by pow1
c No.2 Divisor=11	generated by pow1
c p0= 11	p1= 11	p2= 11	
c number of digits = 4
c linkingVar[0].size = 11, linkingVar[1].size = 11, linkingVar[2].size = 11, linkingVar[3].size = 1, 
c Pseudo-Boolean Constraints: 153921 variables and 1352979 clauses
c Sum of weights = 264930
c A number of soft clauses remained = 8100
c MRWTO encoding for Pseudo-Boolean Constraints
c sizeMax=1224
c No.0 Divisor=11	generated by pow1
c No.1 Divisor=11	generated by pow1
c No.2 Divisor=11	generated by pow1
c p0= 11	p1= 11	p2= 11	
c number of digits = 4
c linkingVar[0].size = 11, linkingVar[1].size = 11, linkingVar[2].size = 11, linkingVar[3].size = 1, 
c Pseudo-Boolean Constraints: 153921 variables and 1352979 clauses
c Sum of weights = 264930
c A number of soft clauses remained = 8100
c MRWTO encoding for Pseudo-Boolean Constraints
c sizeMax=1224
c No.0 Divisor=11	generated by pow1
c No.1 Divisor=11	generated by pow1
c No.2 Divisor=11	generated by pow1
c p0= 11	p1= 11	p2= 11	
c number of digits = 4
c linkingVar[0].size = 11, linkingVar[1].size = 11, linkingVar[2].size = 11, linkingVar[3].size = 1, 
c Pseudo-Boolean Constraints: 153921 variables and 1352979 clauses
c Sum of weights = 264930
c A number of soft clauses remained = 8100
c MRWTO encoding for Pseudo-Boolean Constraints
c sizeMax=1224
c No.0 Divisor=11	generated by pow1
c No.1 Divisor=11	generated by pow1
c No.2 Divisor=11	generated by pow1
c p0= 11	p1= 11	p2= 11	
c number of digits = 4
c linkingVar[0].size = 11, linkingVar[1].size = 11, linkingVar[2].size = 11, linkingVar[3].size = 1, 
c Pseudo-Boolean Constraints: 153921 variables and 1352979 clauses
c Sum of weights = 264930
c A number of soft clauses remained = 8100
c MRWTO encoding for Pseudo-Boolean Constraints
c sizeMax=1224
c No.0 Divisor=11	generated by pow1
c No.1 Divisor=11	generated by pow1
c No.2 Divisor=11	generated by pow1
c p0= 11	p1= 11	p2= 11	
c number of digits = 4
c linkingVar[0].size = 11, linkingVar[1].size = 11, linkingVar[2].size = 11, linkingVar[3].size = 1, 
c Pseudo-Boolean Constraints: 153921 variables and 1352979 clauses
c Sum of weights = 264930
c A number of soft clauses remained = 8100
c MRWTO encoding for Pseudo-Boolean Constraints
c sizeMax=1224
c No.0 Divisor=11	generated by pow1
c No.1 Divisor=11	generated by pow1
c No.2 Divisor=11	generated by pow1
c p0= 11	p1= 11	p2= 11	
c number of digits = 4
c linkingVar[0].size = 11, linkingVar[1].size = 11, linkingVar[2].size = 11, linkingVar[3].size = 1, 
c Pseudo-Boolean Constraints: 153921 variables and 1352979 clauses
c Sum of weights = 264930
c A number of soft clauses remained = 8100
c MRWTO encoding for Pseudo-Boolean Constraints
c sizeMax=1224
c No.0 Divisor=11	generated by pow1
c No.1 Divisor=11	generated by pow1
c No.2 Divisor=11	generated by pow1
c p0= 11	p1= 11	p2= 11	
c number of digits = 4
c linkingVar[0].size = 11, linkingVar[1].size = 11, linkingVar[2].size = 11, linkingVar[3].size = 1, 
c Pseudo-Boolean Constraints: 153921 variables and 1352979 clauses
c last restart ## conflicts  :  82 26737 
o 385 | cpuTime 6.78655 s
c last restart ## conflicts  :  479 34318 
o 356 | cpuTime 116.089 s
c last restart ## conflicts  :  372 12980 
o 350 | cpuTime 129.225 s
c last restart ## conflicts  :  222 20406 
o 291 | cpuTime 136.598 s
c last restart ## conflicts  :  304 16072 
o 274 | cpuTime 154.486 s
c last restart ## conflicts  :  303 101668 
o 263 | cpuTime 379.019 s
c last restart ## conflicts  :  468 21673 
o 261 | cpuTime 658.625 s
c last restart ## conflicts  :  960 16101 
o 241 | cpuTime 1327.57 s
c last restart ## conflicts  :  160 20600 
o 221 | cpuTime 1417.67 s
s UNKNOWN
c Search is stopped by a limit (maybe time-limit)
cr positiVarArr: [ | 66(1->50) | 164(1->56) | 204(1->4) | 335(1->43) | 447(1->63) | 500(1->24) | 587(1->19) | 688(1->28) | 798(1->46) | 897(1->53) | 972(1->36) | 1079(1->51) | 1140(1->20) | 1234(1->22) | 1331(1->27) | 1461(1->65) | 1503(1->15) | 1603(2->23) | 1705(3->33) | 1749(4->1) | 1855(5->1) | 1965(6->17) | 2113(7->73) | 2176(8->44) | 2236(9->12) | 2356(10->40) | 2424(11->16) | 2539(12->39) | 2654(13->62) | 2733(14->49) | 2823(15->47) | 2859(16->1) | 2986(17->26) | 3122(18->70) | 3179(19->35) | 3296(20->60) | 3338(21->10) | 3450(22->30) | 3543(23->31) | 3668(24->64) | 3751(25->55) | 3855(26->67) | 3893(27->13) | 4026(28->54) | 4069(29->5) | 4177(30->21) | 4307(31->59) | 4349(32->9) | 4427(33->1) | 4532(34->8) | 4609(35->1) | 4769(36->61) | 4852(37->52) | 4903(38->11) | 5056(39->72) | 5079(40->3) | 5210(41->42) | 5329(42->69) | 5397(43->45) | 5476(44->32) | 5565(45->29) | 5662(46->34) | 5777(47->57) | 5886(48->74) | 5894(49->1) | 6021(50->25) | 6136(51->48) | 6180(52->1) | 6286(53->14) | 6405(54->41) | 6474(55->18) | 6534(56->1) | 6629(57->1) | 6739(58->7) | 6818(59->1) | 6922(60->6) | 6995(61->1) | 7138(62->38) | 7194(63->2) | 7355(64->71) | 7442(65->66) | 7460(66->1) | 7636(67->76) | 7727(68->75) | 7742(69->1) | 7873(70->37) | 7996(71->68) | 8078(72->58) | 8113(73->1) | 8192(74->1) | 8292(75->1) | 8385(76->1) | ]
cr the 1-th chain: [ 1->50->25->55->18->70->37->52->1 ] (#non-depot=7) {#cumul.=8}
cr the 2-th chain: [ 1->56->1 ] (#non-depot=1) {#cumul.=9}
cr the 3-th chain: [ 1->4->1 ] (#non-depot=1) {#cumul.=10}
cr the 4-th chain: [ 1->43->45->29->5->1 ] (#non-depot=4) {#cumul.=14}
cr the 5-th chain: [ 1->63->2->23->31->59->1 ] (#non-depot=5) {#cumul.=19}
cr the 6-th chain: [ 1->24->64->71->68->75->1 ] (#non-depot=5) {#cumul.=24}
cr the 7-th chain: [ 1->19->35->1 ] (#non-depot=2) {#cumul.=26}
cr the 8-th chain: [ 1->28->54->41->42->69->1 ] (#non-depot=5) {#cumul.=31}
cr the 9-th chain: [ 1->46->34->8->44->32->9->12->39->72->58->7->73->1 ] (#non-depot=12) {#cumul.=43}
cr the 10-th chain: [ 1->53->14->49->1 ] (#non-depot=3) {#cumul.=46}
cr the 11-th chain: [ 1->36->61->1 ] (#non-depot=2) {#cumul.=48}
cr the 12-th chain: [ 1->51->48->74->1 ] (#non-depot=3) {#cumul.=51}
cr the 13-th chain: [ 1->20->60->6->17->26->67->76->1 ] (#non-depot=7) {#cumul.=58}
cr the 14-th chain: [ 1->22->30->21->10->40->3->33->1 ] (#non-depot=7) {#cumul.=65}
cr the 15-th chain: [ 1->27->13->62->38->11->16->1 ] (#non-depot=6) {#cumul.=71}
cr the 16-th chain: [ 1->65->66->1 ] (#non-depot=2) {#cumul.=73}
cr the 17-th chain: [ 1->15->47->57->1 ] (#non-depot=3) {#cumul.=76}
c Latest Answer = 0 by 10 loops
c restarts              : 23467
c conflicts             : 3523077        (980 /sec)
c decisions             : 135235034      (0.00 % random) (37607 /sec)
c propagations          : 36164837818    (10056932 /sec)
c conflict literals     : 605735485      (33.44 % deleted)
c Memory used           : 2950.00 MB
c CPU time              : 3596.01 s
